<number of tasks>
50

<cycle time>
1000

<order strength>
0.196


<task times>
1 529
2 642
3 507
4 351
5 517
6 759
7 287
8 461
9 560
10 643
11 564
12 421
13 505
14 502
15 596
16 479
17 463
18 486
19 458
20 711
21 421
22 613
23 600
24 354
25 471
26 442
27 734
28 438
29 619
30 726
31 400
32 332
33 491
34 544
35 593
36 485
37 414
38 509
39 557
40 265
41 538
42 548
43 587
44 436
45 688
46 369
47 694
48 447
49 619
50 673

<precedence relations>
1,32
2,32
3,4
3,5
3,6
3,7
3,8
3,9
3,10
3,11
4,32
5,12
5,16
5,38
8,13
8,14
9,23
10,15
12,17
13,18
13,20
14,21
15,22
15,23
16,19
16,50
17,24
18,27
19,26
20,28
20,29
20,31
21,30
23,25
24,32
25,32
26,34
27,36
28,33
28,37
29,35
30,39
31,38
32,40
32,41
32,42
32,43
32,44
33,45
34,47
35,46
41,50
45,48
46,49

<end>
